; benchmark generated from python API
(set-info :status unknown)
(declare-fun DISJ_W_S1_R_S1 () Bool)
(declare-fun R_E1_V6 () Bool)
(declare-fun W_S1_V6 () Bool)
(declare-fun R_E1_V4 () Bool)
(declare-fun W_S1_V4 () Bool)
(declare-fun W_S1_V3 () Bool)
(declare-fun W_S1_V1 () Bool)
(declare-fun R_S1_V6 () Bool)
(declare-fun R_S1_V4 () Bool)
(declare-fun R_S1_V5 () Bool)
(declare-fun R_S1_V2 () Bool)
(declare-fun R_S1_V3 () Bool)
(declare-fun R_S1_V1 () Bool)
(declare-fun R_E2_V1 () Bool)
(declare-fun R_E1_V2 () Bool)
(declare-fun R_E1_V5 () Bool)
(declare-fun R_E2_V6 () Bool)
(declare-fun R_E2_V4 () Bool)
(declare-fun R_E2_V5 () Bool)
(declare-fun DISJ_W_S1_R_E2 () Bool)
(declare-fun W_S1_V5 () Bool)
(declare-fun W_S1_V2 () Bool)
(declare-fun R_E1_V3 () Bool)
(declare-fun R_E1_V1 () Bool)
(declare-fun R_E2_V3 () Bool)
(declare-fun DISJ_W_S1_R_E1 () Bool)
(assert
 (let (($x4925 (not DISJ_W_S1_R_S1)))
 (let (($x2479 (not (and W_S1_V6 R_E1_V6))))
 (let (($x2754 (not (and W_S1_V4 R_E1_V4))))
 (let (($x746 (forall ((V2_0 Int) )(forall ((V5_0 Int) )(forall ((V4_0 Int) )(forall ((V6_0 Int) )(forall ((MW_S1_V1 Bool) )(forall ((MW_S1_V3 Bool) )(forall ((MW_S1_V2 Bool) )(forall ((MW_S1_V5 Bool) )(forall ((MW_S1_V4 Bool) )(forall ((MW_S1_V6 Bool) )(forall ((S1_V1_!7478 Int) )(forall ((S1_V1_!7484 Int) )(forall ((S1_V1_!7493 Int) )(forall ((S1_V1_!7499 Int) )(forall ((S1_V1_!7506 Int) )(forall ((S1_V3_!7479 Int) )(forall ((S1_V3_!7485 Int) )(forall ((S1_V3_!7494 Int) )(forall ((S1_V3_!7500 Int) )(forall ((S1_V3_!7507 Int) )(forall ((S1_V2_!7480 Int) )(forall ((S1_V2_!7486 Int) )(forall ((S1_V2_!7495 Int) )(forall ((S1_V2_!7501 Int) )(forall ((S1_V2_!7508 Int) )(forall ((E1_!7475 Int) )(forall ((E1_!7490 Int) )(forall ((E1_!7492 Int) )(forall ((E1_!7505 Int) )(forall ((S1_V5_!7481 Int) )(forall ((S1_V5_!7487 Int) )(forall ((S1_V5_!7496 Int) )(forall ((S1_V5_!7502 Int) )(forall ((S1_V5_!7509 Int) )(forall ((E2_!7476 Int) )(forall ((E2_!7477 Int) )(forall ((E2_!7491 Int) )(forall ((S1_V4_!7482 Int) )(forall ((S1_V4_!7488 Int) )(forall ((S1_V4_!7497 Int) )(forall ((S1_V4_!7503 Int) )(forall ((S1_V4_!7510 Int) )(forall ((S1_V6_!7483 Int) )(forall ((S1_V6_!7489 Int) )(forall ((S1_V6_!7498 Int) )(forall ((S1_V6_!7504 Int) )(forall ((S1_V6_!7511 Int) )(let ((?x566 (ite MW_S1_V3 S1_V3_!7500 E2_!7491)))
 (let ((?x3055 (+ 1 ?x566)))
 (let ((?x327 (ite MW_S1_V3 S1_V3_!7507 ?x3055)))
 (let ((?x245 (ite MW_S1_V3 S1_V3_!7479 E2_!7477)))
 (let ((?x2288 (+ 1 ?x245)))
 (let ((?x1722 (ite MW_S1_V3 S1_V3_!7485 ?x2288)))
 (let (($x3390 (and (= (ite MW_S1_V1 S1_V1_!7484 E1_!7475) (ite MW_S1_V1 S1_V1_!7506 E1_!7505)) (= ?x1722 ?x327) (= (ite MW_S1_V2 S1_V2_!7486 V2_0) (ite MW_S1_V2 S1_V2_!7508 V2_0)) (= (ite MW_S1_V5 S1_V5_!7487 V5_0) (ite MW_S1_V5 S1_V5_!7509 V5_0)) (= (ite MW_S1_V4 S1_V4_!7488 V4_0) (ite MW_S1_V4 S1_V4_!7510 V4_0)) (= (ite MW_S1_V6 S1_V6_!7489 V6_0) (ite MW_S1_V6 S1_V6_!7511 V6_0)))))
 (let (($x449 (>= (ite MW_S1_V1 S1_V1_!7499 (+ 1 (ite MW_S1_V1 S1_V1_!7493 E1_!7492))) (+ (- 1) (ite MW_S1_V2 S1_V2_!7501 V2_0)))))
 (let (($x181 (and (not (<= V4_0 E2_!7476)) (not (<= V2_0 E1_!7475)) (not (<= V4_0 E2_!7477)) (not (<= (ite MW_S1_V4 S1_V4_!7482 V4_0) ?x2288)) (>= ?x1722 (+ (- 1) (ite MW_S1_V4 S1_V4_!7488 V4_0))) (>= (ite MW_S1_V1 S1_V1_!7484 E1_!7475) (+ (- 1) (ite MW_S1_V2 S1_V2_!7486 V2_0))) (not (<= V2_0 E1_!7490)) (not (<= V4_0 E2_!7491)) (not (<= V2_0 E1_!7492)) (not (<= (ite MW_S1_V2 S1_V2_!7495 V2_0) (+ 1 (ite MW_S1_V1 S1_V1_!7493 E1_!7492)))) $x449 (not (<= (ite MW_S1_V4 S1_V4_!7503 V4_0) ?x3055)) (not (<= (ite MW_S1_V2 S1_V2_!7501 V2_0) E1_!7505)) (>= (ite MW_S1_V1 S1_V1_!7506 E1_!7505) (+ (- 1) (ite MW_S1_V2 S1_V2_!7508 V2_0))) (>= ?x327 (+ (- 1) (ite MW_S1_V4 S1_V4_!7510 V4_0))))))
 (let (($x3955 (= S1_V6_!7511 S1_V6_!7504)))
 (let (($x2175 (and (or (not R_S1_V1) (= E1_!7505 (+ 1 (ite MW_S1_V1 S1_V1_!7493 E1_!7492)))) (or (not R_S1_V3) (= ?x566 (+ (- 1) (ite MW_S1_V3 S1_V3_!7494 E2_!7491)))) (or (not R_S1_V2) (= (ite MW_S1_V2 S1_V2_!7501 V2_0) (ite MW_S1_V2 S1_V2_!7495 V2_0))) (or (not R_S1_V5) (= (ite MW_S1_V5 S1_V5_!7502 V5_0) (ite MW_S1_V5 S1_V5_!7496 V5_0))) (or (not R_S1_V4) (= (ite MW_S1_V4 S1_V4_!7503 V4_0) (ite MW_S1_V4 S1_V4_!7497 V4_0))) (or (not R_S1_V6) (= (ite MW_S1_V6 S1_V6_!7504 V6_0) (ite MW_S1_V6 S1_V6_!7498 V6_0))))))
 (let (($x2063 (not $x2175)))
 (let (($x847 (= S1_V6_!7511 S1_V6_!7489)))
 (let (($x2218 (and (or (not R_S1_V1) (= E1_!7505 (ite MW_S1_V1 S1_V1_!7478 E1_!7475))) (or (not R_S1_V3) (= ?x566 ?x245)) (or (not R_S1_V2) (= (ite MW_S1_V2 S1_V2_!7501 V2_0) (ite MW_S1_V2 S1_V2_!7480 V2_0))) (or (not R_S1_V5) (= (ite MW_S1_V5 S1_V5_!7502 V5_0) (ite MW_S1_V5 S1_V5_!7481 V5_0))) (or (not R_S1_V4) (= (ite MW_S1_V4 S1_V4_!7503 V4_0) (ite MW_S1_V4 S1_V4_!7482 V4_0))) (or (not R_S1_V6) (= (ite MW_S1_V6 S1_V6_!7504 V6_0) (ite MW_S1_V6 S1_V6_!7483 V6_0))))))
 (let (($x30 (not $x2218)))
 (let (($x3542 (not R_S1_V6)))
 (let (($x3987 (or $x3542 (= (ite MW_S1_V6 S1_V6_!7504 V6_0) V6_0))))
 (let (($x34 (not R_S1_V4)))
 (let (($x723 (or $x34 (= (ite MW_S1_V4 S1_V4_!7503 V4_0) V4_0))))
 (let (($x5763 (not R_S1_V5)))
 (let (($x5279 (or $x5763 (= (ite MW_S1_V5 S1_V5_!7502 V5_0) V5_0))))
 (let (($x1286 (not R_S1_V2)))
 (let (($x2042 (or $x1286 (= (ite MW_S1_V2 S1_V2_!7501 V2_0) V2_0))))
 (let (($x4820 (and (or (not R_S1_V1) (= E1_!7505 E1_!7475)) (or (not R_S1_V3) (= ?x566 (+ (- 1) E2_!7477))) $x2042 $x5279 $x723 $x3987)))
 (let (($x5850 (not $x4820)))
 (let (($x4823 (= S1_V6_!7504 S1_V6_!7489)))
 (let (($x1786 (not R_S1_V1)))
 (let (($x2559 (or $x1786 (= (ite MW_S1_V1 S1_V1_!7493 E1_!7492) (+ (- 1) (ite MW_S1_V1 S1_V1_!7478 E1_!7475))))))
 (let (($x3735 (and $x2559 (or (not R_S1_V3) (= (ite MW_S1_V3 S1_V3_!7494 E2_!7491) ?x2288)) (or $x1286 (= (ite MW_S1_V2 S1_V2_!7495 V2_0) (ite MW_S1_V2 S1_V2_!7480 V2_0))) (or $x5763 (= (ite MW_S1_V5 S1_V5_!7496 V5_0) (ite MW_S1_V5 S1_V5_!7481 V5_0))) (or $x34 (= (ite MW_S1_V4 S1_V4_!7497 V4_0) (ite MW_S1_V4 S1_V4_!7482 V4_0))) (or $x3542 (= (ite MW_S1_V6 S1_V6_!7498 V6_0) (ite MW_S1_V6 S1_V6_!7483 V6_0))))))
 (let (($x4237 (not $x3735)))
 (let (($x1834 (or $x3542 (= (ite MW_S1_V6 S1_V6_!7498 V6_0) V6_0))))
 (let (($x2055 (or $x34 (= (ite MW_S1_V4 S1_V4_!7497 V4_0) V4_0))))
 (let (($x3818 (or $x5763 (= (ite MW_S1_V5 S1_V5_!7496 V5_0) V5_0))))
 (let (($x2111 (or $x1286 (= (ite MW_S1_V2 S1_V2_!7495 V2_0) V2_0))))
 (let (($x1254 (and (or $x1786 (= (ite MW_S1_V1 S1_V1_!7493 E1_!7492) (+ (- 1) E1_!7475))) (or (not R_S1_V3) (= (ite MW_S1_V3 S1_V3_!7494 E2_!7491) E2_!7477)) $x2111 $x3818 $x2055 $x1834)))
 (let (($x4521 (not $x1254)))
 (let ((?x602 (ite MW_S1_V6 S1_V6_!7504 V6_0)))
 (let (($x3220 (= V6_0 ?x602)))
 (let (($x1566 (or $x3542 $x3220)))
 (let ((?x4159 (ite MW_S1_V4 S1_V4_!7503 V4_0)))
 (let (($x5792 (= V4_0 ?x4159)))
 (let (($x1550 (or $x34 $x5792)))
 (let (($x301 (or $x5763 (= V5_0 (ite MW_S1_V5 S1_V5_!7502 V5_0)))))
 (let ((?x2015 (ite MW_S1_V2 S1_V2_!7501 V2_0)))
 (let (($x5438 (= V2_0 ?x2015)))
 (let (($x5169 (or $x1286 $x5438)))
 (let (($x1067 (and (or $x1786 (= E1_!7492 E1_!7505)) (or (not R_S1_V3) (= E2_!7491 ?x3055)) $x5169 $x301 $x1550 $x1566)))
 (let (($x32 (not $x1067)))
 (let (($x2536 (or $x3542 (= V6_0 (ite MW_S1_V6 S1_V6_!7498 V6_0)))))
 (let (($x1901 (or $x34 (= V4_0 (ite MW_S1_V4 S1_V4_!7497 V4_0)))))
 (let (($x4006 (or $x5763 (= V5_0 (ite MW_S1_V5 S1_V5_!7496 V5_0)))))
 (let (($x5903 (or $x1286 (= V2_0 (ite MW_S1_V2 S1_V2_!7495 V2_0)))))
 (let (($x1060 (and (or $x1786 (= E1_!7492 (+ 1 (ite MW_S1_V1 S1_V1_!7493 E1_!7492)))) (or (not R_S1_V3) (= E2_!7491 (ite MW_S1_V3 S1_V3_!7494 E2_!7491))) $x5903 $x4006 $x1901 $x2536)))
 (let (($x650 (not $x1060)))
 (let (($x1598 (or $x3542 (= V6_0 (ite MW_S1_V6 S1_V6_!7483 V6_0)))))
 (let (($x1974 (or $x34 (= V4_0 (ite MW_S1_V4 S1_V4_!7482 V4_0)))))
 (let (($x2511 (or $x5763 (= V5_0 (ite MW_S1_V5 S1_V5_!7481 V5_0)))))
 (let (($x931 (or $x1286 (= V2_0 (ite MW_S1_V2 S1_V2_!7480 V2_0)))))
 (let (($x2139 (and (or $x1786 (= E1_!7492 (ite MW_S1_V1 S1_V1_!7478 E1_!7475))) (or (not R_S1_V3) (= E2_!7491 ?x2288)) $x931 $x2511 $x1974 $x1598)))
 (let (($x2521 (not $x2139)))
 (let (($x2458 (not (and (or $x1786 (= E1_!7492 E1_!7475)) (or (not R_S1_V3) (= E2_!7491 E2_!7477))))))
 (let (($x680 (and (or $x1786 (= E1_!7475 (ite MW_S1_V1 S1_V1_!7478 E1_!7475))) (or (not R_S1_V3) (= E2_!7477 ?x2288)) $x931 $x2511 $x1974 $x1598)))
 (let (($x3244 (not $x680)))
 (let (($x3531 (= S1_V4_!7510 S1_V4_!7497)))
 (let (($x150 (and (or $x1786 (= E1_!7505 E1_!7492)) (or (not R_S1_V3) (= ?x566 (+ (- 1) E2_!7491))) $x2042 $x5279 $x723 $x3987)))
 (let (($x4020 (not $x150)))
 (let (($x2246 (and (or $x1786 (= (ite MW_S1_V1 S1_V1_!7493 E1_!7492) (+ (- 1) E1_!7505))) (or (not R_S1_V3) (= (ite MW_S1_V3 S1_V3_!7494 E2_!7491) ?x3055)) (or $x1286 (= (ite MW_S1_V2 S1_V2_!7495 V2_0) ?x2015)) (or $x5763 (= (ite MW_S1_V5 S1_V5_!7496 V5_0) (ite MW_S1_V5 S1_V5_!7502 V5_0))) (or $x34 (= (ite MW_S1_V4 S1_V4_!7497 V4_0) ?x4159)) (or $x3542 (= (ite MW_S1_V6 S1_V6_!7498 V6_0) ?x602)))))
 (let (($x4926 (not $x2246)))
 (let (($x3496 (= S1_V4_!7503 S1_V4_!7497)))
 (let (($x2393 (and (or $x1786 (= (ite MW_S1_V1 S1_V1_!7493 E1_!7492) (+ (- 1) E1_!7492))) (or (not R_S1_V3) (= (ite MW_S1_V3 S1_V3_!7494 E2_!7491) E2_!7491)) $x2111 $x3818 $x2055 $x1834)))
 (let (($x2314 (not $x2393)))
 (let (($x818 (and (or $x1786 (= E1_!7475 E1_!7505)) (or (not R_S1_V3) (= E2_!7477 ?x3055)) $x5169 $x301 $x1550 $x1566)))
 (let (($x131 (not (and (or $x1786 (= E1_!7475 E1_!7492)) (or (not R_S1_V3) (= E2_!7477 E2_!7491))))))
 (let (($x1871 (and (or $x1786 (= E1_!7475 (+ 1 (ite MW_S1_V1 S1_V1_!7493 E1_!7492)))) (or (not R_S1_V3) (= E2_!7477 (ite MW_S1_V3 S1_V3_!7494 E2_!7491))) $x5903 $x4006 $x1901 $x2536)))
 (let (($x3833 (= E1_!7492 E1_!7505)))
 (let (($x5020 (and (or (not R_E1_V2) $x5438) (or (not R_E1_V4) $x5792) (or (not R_E1_V6) $x3220))))
 (let (($x488 (not $x5020)))
 (let (($x2162 (= E1_!7492 E1_!7475)))
 (let (($x2998 (= E1_!7490 E1_!7492)))
 (let (($x2025 (= E1_!7490 E1_!7475)))
 (let (($x3144 (and (or $x1786 (= (ite MW_S1_V1 S1_V1_!7478 E1_!7475) E1_!7505)) (or (not R_S1_V3) (= ?x245 ?x566)) (or $x1286 (= (ite MW_S1_V2 S1_V2_!7480 V2_0) ?x2015)) (or $x5763 (= (ite MW_S1_V5 S1_V5_!7481 V5_0) (ite MW_S1_V5 S1_V5_!7502 V5_0))) (or $x34 (= (ite MW_S1_V4 S1_V4_!7482 V4_0) ?x4159)) (or $x3542 (= (ite MW_S1_V6 S1_V6_!7483 V6_0) ?x602)))))
 (let (($x937 (not $x3144)))
 (let (($x5848 (and (or $x1786 (= (ite MW_S1_V1 S1_V1_!7478 E1_!7475) (+ 1 (ite MW_S1_V1 S1_V1_!7493 E1_!7492)))) (or (not R_S1_V3) (= ?x245 (+ (- 1) (ite MW_S1_V3 S1_V3_!7494 E2_!7491)))) (or $x1286 (= (ite MW_S1_V2 S1_V2_!7480 V2_0) (ite MW_S1_V2 S1_V2_!7495 V2_0))) (or $x5763 (= (ite MW_S1_V5 S1_V5_!7481 V5_0) (ite MW_S1_V5 S1_V5_!7496 V5_0))) (or $x34 (= (ite MW_S1_V4 S1_V4_!7482 V4_0) (ite MW_S1_V4 S1_V4_!7497 V4_0))) (or $x3542 (= (ite MW_S1_V6 S1_V6_!7483 V6_0) (ite MW_S1_V6 S1_V6_!7498 V6_0))))))
 (let (($x1652 (not $x5848)))
 (let (($x1186 (or $x3542 (= (ite MW_S1_V6 S1_V6_!7483 V6_0) V6_0))))
 (let (($x5342 (or $x34 (= (ite MW_S1_V4 S1_V4_!7482 V4_0) V4_0))))
 (let (($x3478 (or $x5763 (= (ite MW_S1_V5 S1_V5_!7481 V5_0) V5_0))))
 (let (($x3659 (or $x1286 (= (ite MW_S1_V2 S1_V2_!7480 V2_0) V2_0))))
 (let (($x1881 (and (or $x1786 (= (ite MW_S1_V1 S1_V1_!7478 E1_!7475) E1_!7492)) (or (not R_S1_V3) (= ?x245 (+ (- 1) E2_!7491))) $x3659 $x3478 $x5342 $x1186)))
 (let (($x228 (not $x1881)))
 (let (($x2964 (= S1_V2_!7486 S1_V2_!7480)))
 (let (($x3424 (and (or $x1786 (= (ite MW_S1_V1 S1_V1_!7478 E1_!7475) E1_!7475)) (or (not R_S1_V3) (= ?x245 (+ (- 1) E2_!7477))) $x3659 $x3478 $x5342 $x1186)))
 (let (($x4611 (not $x3424)))
 (let (($x2310 (and (or $x3244 (= S1_V1_!7478 S1_V1_!7484)) (or $x131 (= S1_V1_!7478 S1_V1_!7493)) (or $x228 (= S1_V1_!7484 S1_V1_!7493)) (or $x4521 (= S1_V1_!7499 S1_V1_!7478)) (or $x4237 (= S1_V1_!7499 S1_V1_!7484)) (or $x2314 (= S1_V1_!7499 S1_V1_!7493)) (or $x4926 (= S1_V1_!7499 S1_V1_!7506)) (or $x5850 (= S1_V1_!7506 S1_V1_!7478)) (or $x30 (= S1_V1_!7506 S1_V1_!7484)) (or $x4020 (= S1_V1_!7506 S1_V1_!7493)) (or $x4611 (= S1_V3_!7485 S1_V3_!7479)) (or $x228 (= S1_V3_!7485 S1_V3_!7494)) (or $x1652 (= S1_V3_!7485 S1_V3_!7500)) (or $x937 (= S1_V3_!7485 S1_V3_!7507)) (or $x2458 (= S1_V3_!7494 S1_V3_!7479)) (or $x650 (= S1_V3_!7494 S1_V3_!7500)) (or $x32 (= S1_V3_!7494 S1_V3_!7507)) (or $x4521 (= S1_V3_!7500 S1_V3_!7479)) (or $x4926 (= S1_V3_!7500 S1_V3_!7507)) (or $x5850 (= S1_V3_!7507 S1_V3_!7479)) (or $x131 (= S1_V2_!7480 S1_V2_!7495)) (or $x4611 $x2964) (or $x228 (= S1_V2_!7486 S1_V2_!7495)) (or $x1652 (= S1_V2_!7486 S1_V2_!7501)) (or $x937 (= S1_V2_!7486 S1_V2_!7508)) (or $x4521 (= S1_V2_!7501 S1_V2_!7480)) (or $x2314 (= S1_V2_!7501 S1_V2_!7495)) (or $x5850 (= S1_V2_!7508 S1_V2_!7480)) (or $x4020 (= S1_V2_!7508 S1_V2_!7495)) (or $x2063 (= S1_V2_!7508 S1_V2_!7501)) (or $x488 (= E1_!7475 E1_!7505)) $x2025 $x2998 (or $x488 (= E1_!7490 E1_!7505)) $x2162 (or $x488 $x3833) (or $x3244 (= S1_V5_!7481 S1_V5_!7487)) (or $x131 (= S1_V5_!7481 S1_V5_!7496)) (or (not $x1871) (= S1_V5_!7481 S1_V5_!7502)) (or $x2521 (= S1_V5_!7496 S1_V5_!7487)) (or $x650 (= S1_V5_!7496 S1_V5_!7502)) (or $x4237 (= S1_V5_!7502 S1_V5_!7487)) (or $x5850 (= S1_V5_!7509 S1_V5_!7481)) (or $x30 (= S1_V5_!7509 S1_V5_!7487)) (or $x4020 (= S1_V5_!7509 S1_V5_!7496)) (or $x2063 (= S1_V5_!7509 S1_V5_!7502)) (= E2_!7476 E2_!7477) (or (not (or (not R_E2_V1) $x2025)) (= E2_!7491 E2_!7476)) (or (not (or (not R_E2_V1) $x2025)) (= E2_!7491 E2_!7477)) (or $x3244 (= S1_V4_!7482 S1_V4_!7488)) (or $x131 (= S1_V4_!7482 S1_V4_!7497)) (or (not $x818) (= S1_V4_!7482 S1_V4_!7510)) (or $x2521 (= S1_V4_!7497 S1_V4_!7488)) (or $x4521 (= S1_V4_!7503 S1_V4_!7482)) (or $x4237 (= S1_V4_!7503 S1_V4_!7488)) (or $x2314 $x3496) (or $x4926 (= S1_V4_!7503 S1_V4_!7510)) (or $x30 (= S1_V4_!7510 S1_V4_!7488)) (or $x4020 $x3531) (or $x3244 (= S1_V6_!7483 S1_V6_!7489)) (or $x2458 (= S1_V6_!7498 S1_V6_!7483)) (or $x2521 (= S1_V6_!7498 S1_V6_!7489)) (or $x650 (= S1_V6_!7498 S1_V6_!7504)) (or $x32 (= S1_V6_!7498 S1_V6_!7511)) (or $x4521 (= S1_V6_!7504 S1_V6_!7483)) (or $x4237 $x4823) (or $x5850 (= S1_V6_!7511 S1_V6_!7483)) (or $x30 $x847) (or $x2063 $x3955) (or (not MW_S1_V1) W_S1_V1) (or (not MW_S1_V3) W_S1_V3) (not MW_S1_V2) (or (not MW_S1_V4) W_S1_V4) (or (not MW_S1_V6) W_S1_V6))))
 (or (not $x2310) (not $x181) $x3390))))))))))))))))))))))))))))))))))))))))))))))))))))))))))))))))))))))))))))))))))))))))))))))))
 )
 )
 )
 )
 )
 )
 )
 )
 )
 )
 )
 )
 )
 )
 )
 )
 )
 )
 )
 )
 )
 )
 )
 )
 )
 )
 )
 )
 )
 )
 )
 )
 )
 )
 )
 )
 )
 )
 )
 )
 )
 )
 )
 )
 )
 )
 ))
 (let (($x2356 (not R_E1_V5)))
 (let (($x1773 (and W_S1_V6 R_S1_V6)))
 (let (($x3624 (and W_S1_V4 R_S1_V4)))
 (let (($x2368 (and W_S1_V3 R_S1_V3)))
 (let (($x5882 (and W_S1_V1 R_S1_V1)))
 (let (($x3263 (= DISJ_W_S1_R_S1 (not (or $x5882 $x2368 R_S1_V5 $x3624 $x1773)))))
 (let (($x1125 (and W_S1_V6 R_E2_V6)))
 (let (($x3552 (and W_S1_V4 R_E2_V4)))
 (let (($x4986 (and W_S1_V1 R_E2_V1)))
 (let (($x1185 (= DISJ_W_S1_R_E2 (not (or $x4986 R_E2_V5 $x3552 $x1125)))))
 (let (($x1786 (not R_S1_V1)))
 (let (($x462 (not W_S1_V1)))
 (let (($x4628 (or DISJ_W_S1_R_S1 $x462 $x1786)))
 (let (($x5370 (not W_S1_V4)))
 (let (($x5172 (not R_S1_V3)))
 (let (($x2032 (and $x5172 $x5370)))
 (let (($x1364 (and (not W_S1_V3) $x5370)))
 (let (($x5784 (or DISJ_W_S1_R_S1 $x462 $x1364 $x2032)))
 (let (($x2029 (not W_S1_V2)))
 (let (($x1221 (not R_E1_V3)))
 (let (($x699 (not R_E1_V1)))
 (let (($x1979 (not R_E2_V3)))
 (let (($x5349 (and DISJ_W_S1_R_E1 $x1979 $x699 $x1221 $x2029 $x5784 $x4628 W_S1_V5 $x1185 $x3263 $x2356 $x746 $x2754 $x2479)))
 (and $x5349 $x4925)))))))))))))))))))))))))))))
(check-sat)
